c pcminimize - minimizing a CNF with respect to propagation completeness by iterative removing of absorbed clauses.
c Petr Kucera, 2016-2021
c Version 2.7, revision 59, git hash 4910a71, date 2024-07-16 20:17:42 +0200
p cnf 54 54
1 0
-2 0
-3 0
-4 0
5 0
6 0
-7 0
-8 0
-9 0
10 0
11 0
-12 0
-13 0
-14 0
15 0
16 0
17 0
-18 0
-19 0
-20 0
-21 0
-22 0
-23 0
24 0
-25 0
26 0
-27 0
-28 0
29 0
30 0
31 0
-32 0
-33 0
-34 0
-35 0
36 0
-37 0
-38 0
39 0
40 0
-41 0
42 0
-43 0
44 0
-45 0
-46 0
-47 0
48 0
-50 51 0
-49 50 0
-51 52 0
8 53 0
-52 54 0
-44 49 0
